Traveling Salesman Problem/TSP_generados/Aleatorio1620390964_11.tsp
NAME: Aleatorio1620390964_11.tsp
COMMENT: Randomly generated scenario
TYPE: TSP
DIMENSION: 11
EDGE_WEIGHT_TYPE: ATT
NODE_COORD_SECTION
1 13.68 32.6
2 10.26 31.99
3 32.65 16.46
4 5.59 26.51
5 32.51 33.87
6 13.79 40.84
7 17.77 47.74
8 45.46 11.45
9 21.61 30.55
10 9.47 20.72
11 17.09 21.29
