Traveling Salesman Problem/TSP_generados/Aleatorio1620390964_11.opt.tour
NAME: Aleatorio1620390964_11.opt.tour
COMMENT: Optimal solution for Aleatorio1620390964_11 (126.43799185858899)
TYPE: TOUR
DIMENSION: 11
TOUR_SECTION
1 6 7 9 5 8 3 11 10 4 2
-1
EOF
